(set-logic QF_LIA)
(declare-fun x0 () Int)
(declare-fun x1 () Int)
(declare-fun x2 () Int)
(declare-fun x3 () Int)
(declare-fun x4 () Int)
(declare-fun x5 () Int)
(declare-fun x6 () Int)
(declare-fun x7 () Int)
(declare-fun x8 () Int)
(declare-fun x9 () Int)
(declare-fun A0 () Bool)
(declare-fun A1 () Bool)
(declare-fun A2 () Bool)
(declare-fun A3 () Bool)
(declare-fun A4 () Bool)
(declare-fun A5 () Bool)
(declare-fun A6 () Bool)
(declare-fun A7 () Bool)
(declare-fun A8 () Bool)
(declare-fun A9 () Bool)
(assert (let ((.def_0 (* (- 1) x9))) (let ((.def_1 (* (- 1) x4))) (let ((.def_2 (+ .def_1 .def_0))) (let ((.def_3 (< .def_2 (- 1)))) (let ((.def_4 (or .def_3 A9))) (let ((.def_5 (= A9 A8))) (let ((.def_6 (not .def_5))) (let ((.def_7 (or .def_6 .def_4))) (let ((.def_8 (* (- 1) x8))) (let ((.def_9 (< .def_8 1))) (let ((.def_10 (not .def_9))) (let ((.def_11 (and A2 .def_10))) (let ((.def_12 (* 1 x7))) (let ((.def_13 (* 1 x2))) (let ((.def_14 (+ .def_13 .def_12))) (let ((.def_15 (< .def_14 1))) (let ((.def_16 (* 1 x4))) (let ((.def_17 (+ .def_16 .def_13))) (let ((.def_18 (< .def_17 1))) (let ((.def_19 (= .def_18 .def_15))) (let ((.def_20 (not .def_19))) (let ((.def_21 (= .def_20 .def_11))) (let ((.def_22 (not .def_21))) (let ((.def_23 (or .def_22 .def_7))) (let ((.def_24 (* (- 1) x7))) (let ((.def_25 (* 1 x3))) (let ((.def_26 (+ .def_25 .def_24))) (let ((.def_27 (< .def_26 (- 1)))) (let ((.def_28 (* 1 x1))) (let ((.def_29 (+ .def_28 .def_0))) (let ((.def_30 (< .def_29 (- 1)))) (let ((.def_31 (and .def_30 .def_27))) (let ((.def_32 (not .def_31))) (let ((.def_33 (* (- 1) x2))) (let ((.def_34 (< .def_33 1))) (let ((.def_35 (not .def_34))) (let ((.def_36 (* 1 x6))) (let ((.def_37 (* 1 x8))) (let ((.def_38 (+ .def_37 .def_36))) (let ((.def_39 (< .def_38 (- 1)))) (let ((.def_40 (= .def_39 .def_35))) (let ((.def_41 (and .def_40 .def_32))) (let ((.def_42 (* (- 1) x1))) (let ((.def_43 (+ .def_42 .def_24))) (let ((.def_44 (< .def_43 1))) (let ((.def_45 (not .def_44))) (let ((.def_46 (< .def_12 1))) (let ((.def_47 (not .def_46))) (let ((.def_48 (or .def_47 .def_45))) (let ((.def_49 (not A3))) (let ((.def_50 (* (- 1) x3))) (let ((.def_51 (< .def_50 1))) (let ((.def_52 (or .def_51 .def_49))) (let ((.def_53 (and .def_52 .def_48))) (let ((.def_54 (not .def_53))) (let ((.def_55 (and .def_54 .def_41))) (let ((.def_56 (or .def_55 .def_23))) (let ((.def_57 (not A8))) (let ((.def_58 (* 1 x9))) (let ((.def_59 (< .def_58 1))) (let ((.def_60 (and .def_59 .def_57))) (let ((.def_61 (* 1 x5))) (let ((.def_62 (< .def_61 1))) (let ((.def_63 (not .def_62))) (let ((.def_64 (or .def_57 .def_63))) (let ((.def_65 (and .def_64 .def_60))) (let ((.def_66 (not .def_65))) (let ((.def_67 (< .def_58 (- 1)))) (let ((.def_68 (+ .def_50 .def_8))) (let ((.def_69 (< .def_68 (- 1)))) (let ((.def_70 (and .def_69 .def_67))) (let ((.def_71 (not .def_70))) (let ((.def_72 (not A6))) (let ((.def_73 (or A3 .def_72))) (let ((.def_74 (and .def_73 .def_71))) (let ((.def_75 (and .def_74 .def_66))) (let ((.def_76 (not .def_75))) (let ((.def_77 (< .def_50 (- 1)))) (let ((.def_78 (not .def_77))) (let ((.def_79 (= A7 .def_78))) (let ((.def_80 (not A1))) (let ((.def_81 (not .def_51))) (let ((.def_82 (or .def_81 .def_80))) (let ((.def_83 (not .def_82))) (let ((.def_84 (or .def_83 .def_79))) (let ((.def_85 (or A9 A0))) (let ((.def_86 (+ .def_8 .def_1))) (let ((.def_87 (< .def_86 1))) (let ((.def_88 (not .def_87))) (let ((.def_89 (and A2 .def_88))) (let ((.def_90 (or .def_89 .def_85))) (let ((.def_91 (or .def_90 .def_84))) (let ((.def_92 (= .def_91 .def_76))) (let ((.def_93 (not .def_92))) (let ((.def_94 (or .def_93 .def_56))) (let ((.def_95 (not .def_94))) (let ((.def_96 (+ .def_50 .def_12))) (let ((.def_97 (< .def_96 1))) (let ((.def_98 (not .def_97))) (let ((.def_99 (and .def_98 .def_49))) (let ((.def_100 (* (- 1) x6))) (let ((.def_101 (< .def_100 (- 1)))) (let ((.def_102 (< .def_28 (- 1)))) (let ((.def_103 (not .def_102))) (let ((.def_104 (and .def_103 .def_101))) (let ((.def_105 (not .def_104))) (let ((.def_106 (or .def_105 .def_99))) (let ((.def_107 (< .def_28 1))) (let ((.def_108 (< .def_42 (- 1)))) (let ((.def_109 (and .def_108 .def_107))) (let ((.def_110 (* (- 1) x5))) (let ((.def_111 (+ .def_110 .def_28))) (let ((.def_112 (< .def_111 1))) (let ((.def_113 (and .def_112 .def_57))) (let ((.def_114 (not .def_113))) (let ((.def_115 (and .def_114 .def_109))) (let ((.def_116 (not .def_115))) (let ((.def_117 (and .def_116 .def_106))) (let ((.def_118 (+ .def_37 .def_33))) (let ((.def_119 (< .def_118 (- 1)))) (let ((.def_120 (not .def_119))) (let ((.def_121 (* 1 x0))) (let ((.def_122 (+ .def_121 .def_1))) (let ((.def_123 (< .def_122 (- 1)))) (let ((.def_124 (= .def_123 .def_120))) (let ((.def_125 (= .def_47 A6))) (let ((.def_126 (and .def_125 .def_124))) (let ((.def_127 (not .def_126))) (let ((.def_128 (< .def_33 (- 1)))) (let ((.def_129 (not A7))) (let ((.def_130 (or .def_129 .def_128))) (let ((.def_131 (not .def_130))) (let ((.def_132 (< .def_110 1))) (let ((.def_133 (not .def_132))) (let ((.def_134 (or .def_133 A3))) (let ((.def_135 (and .def_134 .def_131))) (let ((.def_136 (and .def_135 .def_127))) (let ((.def_137 (not .def_136))) (let ((.def_138 (or .def_137 .def_117))) (let ((.def_139 (not .def_101))) (let ((.def_140 (+ .def_33 .def_42))) (let ((.def_141 (< .def_140 (- 1)))) (let ((.def_142 (or .def_141 .def_139))) (let ((.def_143 (and A1 .def_59))) (let ((.def_144 (or .def_143 .def_142))) (let ((.def_145 (not .def_144))) (let ((.def_146 (not .def_128))) (let ((.def_147 (not A4))) (let ((.def_148 (or .def_147 .def_146))) (let ((.def_149 (+ .def_33 .def_1))) (let ((.def_150 (< .def_149 1))) (let ((.def_151 (not .def_150))) (let ((.def_152 (or .def_151 A9))) (let ((.def_153 (not .def_152))) (let ((.def_154 (and .def_153 .def_148))) (let ((.def_155 (and .def_154 .def_145))) (let ((.def_156 (+ .def_37 .def_25))) (let ((.def_157 (< .def_156 (- 1)))) (let ((.def_158 (or .def_157 A4))) (let ((.def_159 (not .def_158))) (let ((.def_160 (not A2))) (let ((.def_161 (= .def_160 A3))) (let ((.def_162 (not .def_161))) (let ((.def_163 (and .def_162 .def_159))) (let ((.def_164 (not .def_163))) (let ((.def_165 (not .def_107))) (let ((.def_166 (not A5))) (let ((.def_167 (and .def_166 .def_165))) (let ((.def_168 (not .def_167))) (let ((.def_169 (< .def_36 1))) (let ((.def_170 (not .def_169))) (let ((.def_171 (and .def_166 .def_170))) (let ((.def_172 (not .def_171))) (let ((.def_173 (and .def_172 .def_168))) (let ((.def_174 (not .def_173))) (let ((.def_175 (and .def_174 .def_164))) (let ((.def_176 (= .def_175 .def_155))) (let ((.def_177 (and .def_176 .def_138))) (let ((.def_178 (not .def_177))) (let ((.def_179 (and .def_178 .def_95))) (let ((.def_180 (not .def_179))) (let ((.def_181 (or A0 A7))) (let ((.def_182 (not .def_181))) (let ((.def_183 (+ .def_37 .def_110))) (let ((.def_184 (< .def_183 1))) (let ((.def_185 (not .def_184))) (let ((.def_186 (or .def_147 .def_185))) (let ((.def_187 (not .def_186))) (let ((.def_188 (and .def_187 .def_182))) (let ((.def_189 (not .def_188))) (let ((.def_190 (< .def_0 1))) (let ((.def_191 (not .def_190))) (let ((.def_192 (or .def_191 .def_80))) (let ((.def_193 (not .def_192))) (let ((.def_194 (< .def_25 1))) (let ((.def_195 (and A5 .def_194))) (let ((.def_196 (not .def_195))) (let ((.def_197 (or .def_196 .def_193))) (let ((.def_198 (= .def_197 .def_189))) (let ((.def_199 (not .def_198))) (let ((.def_200 (< .def_37 1))) (let ((.def_201 (or .def_133 .def_200))) (let ((.def_202 (or A9 .def_59))) (let ((.def_203 (or .def_202 .def_201))) (let ((.def_204 (not .def_203))) (let ((.def_205 (= A7 A9))) (let ((.def_206 (+ .def_121 .def_42))) (let ((.def_207 (< .def_206 (- 1)))) (let ((.def_208 (not .def_207))) (let ((.def_209 (or A4 .def_208))) (let ((.def_210 (= .def_209 .def_205))) (let ((.def_211 (and .def_210 .def_204))) (let ((.def_212 (not .def_211))) (let ((.def_213 (or .def_212 .def_199))) (let ((.def_214 (< .def_61 (- 1)))) (let ((.def_215 (< .def_16 1))) (let ((.def_216 (and .def_215 .def_214))) (let ((.def_217 (not .def_216))) (let ((.def_218 (or A1 .def_77))) (let ((.def_219 (or .def_218 .def_217))) (let ((.def_220 (+ .def_0 .def_100))) (let ((.def_221 (< .def_220 1))) (let ((.def_222 (< .def_42 1))) (let ((.def_223 (and .def_222 .def_221))) (let ((.def_224 (and A5 .def_129))) (let ((.def_225 (not .def_224))) (let ((.def_226 (and .def_225 .def_223))) (let ((.def_227 (or .def_226 .def_219))) (let ((.def_228 (not .def_227))) (let ((.def_229 (< .def_1 (- 1)))) (let ((.def_230 (or .def_129 .def_229))) (let ((.def_231 (+ .def_16 .def_37))) (let ((.def_232 (< .def_231 1))) (let ((.def_233 (not .def_232))) (let ((.def_234 (and .def_233 A8))) (let ((.def_235 (not .def_234))) (let ((.def_236 (or .def_235 .def_230))) (let ((.def_237 (< .def_24 1))) (let ((.def_238 (and .def_237 A9))) (let ((.def_239 (and A3 .def_51))) (let ((.def_240 (not .def_239))) (let ((.def_241 (or .def_240 .def_238))) (let ((.def_242 (and .def_241 .def_236))) (let ((.def_243 (not .def_242))) (let ((.def_244 (or .def_243 .def_228))) (let ((.def_245 (not .def_244))) (let ((.def_246 (or .def_245 .def_213))) (let ((.def_247 (not .def_246))) (let ((.def_248 (+ .def_121 .def_58))) (let ((.def_249 (< .def_248 (- 1)))) (let ((.def_250 (+ .def_25 .def_28))) (let ((.def_251 (< .def_250 1))) (let ((.def_252 (and .def_251 .def_249))) (let ((.def_253 (not .def_252))) (let ((.def_254 (< .def_1 1))) (let ((.def_255 (not .def_237))) (let ((.def_256 (= .def_255 .def_254))) (let ((.def_257 (not .def_256))) (let ((.def_258 (and .def_257 .def_253))) (let ((.def_259 (= .def_63 .def_169))) (let ((.def_260 (not .def_259))) (let ((.def_261 (not A0))) (let ((.def_262 (or A8 .def_261))) (let ((.def_263 (not .def_262))) (let ((.def_264 (or .def_263 .def_260))) (let ((.def_265 (not .def_264))) (let ((.def_266 (and .def_265 .def_258))) (let ((.def_267 (or .def_9 .def_49))) (let ((.def_268 (< .def_36 (- 1)))) (let ((.def_269 (not .def_268))) (let ((.def_270 (or A9 .def_269))) (let ((.def_271 (or .def_270 .def_267))) (let ((.def_272 (or A3 .def_35))) (let ((.def_273 (= .def_72 A3))) (let ((.def_274 (or .def_273 .def_272))) (let ((.def_275 (and .def_274 .def_271))) (let ((.def_276 (not .def_275))) (let ((.def_277 (or .def_276 .def_266))) (let ((.def_278 (not .def_277))) (let ((.def_279 (or .def_147 A0))) (let ((.def_280 (and .def_80 .def_72))) (let ((.def_281 (or .def_280 .def_279))) (let ((.def_282 (not .def_281))) (let ((.def_283 (+ .def_8 .def_58))) (let ((.def_284 (< .def_283 (- 1)))) (let ((.def_285 (not .def_284))) (let ((.def_286 (and .def_285 .def_255))) (let ((.def_287 (not .def_286))) (let ((.def_288 (and A5 A0))) (let ((.def_289 (and .def_288 .def_287))) (let ((.def_290 (and .def_289 .def_282))) (let ((.def_291 (not .def_67))) (let ((.def_292 (or .def_261 .def_291))) (let ((.def_293 (not .def_292))) (let ((.def_294 (not A9))) (let ((.def_295 (* (- 1) x0))) (let ((.def_296 (< .def_295 1))) (let ((.def_297 (not .def_296))) (let ((.def_298 (and .def_297 .def_294))) (let ((.def_299 (not .def_298))) (let ((.def_300 (and .def_299 .def_293))) (let ((.def_301 (not .def_300))) (let ((.def_302 (+ .def_36 .def_110))) (let ((.def_303 (< .def_302 (- 1)))) (let ((.def_304 (not .def_303))) (let ((.def_305 (or .def_229 .def_304))) (let ((.def_306 (and A8 .def_294))) (let ((.def_307 (or .def_306 .def_305))) (let ((.def_308 (not .def_307))) (let ((.def_309 (= .def_308 .def_301))) (let ((.def_310 (or .def_309 .def_290))) (let ((.def_311 (or .def_310 .def_278))) (let ((.def_312 (not .def_311))) (let ((.def_313 (= .def_312 .def_247))) (let ((.def_314 (and .def_313 .def_180))) (let ((.def_315 (not .def_314))) (let ((.def_316 (< .def_121 (- 1)))) (let ((.def_317 (not .def_316))) (let ((.def_318 (or .def_80 .def_317))) (let ((.def_319 (+ .def_58 .def_16))) (let ((.def_320 (< .def_319 1))) (let ((.def_321 (not .def_320))) (let ((.def_322 (and .def_57 .def_321))) (let ((.def_323 (not .def_322))) (let ((.def_324 (or .def_323 .def_318))) (let ((.def_325 (not .def_324))) (let ((.def_326 (and .def_294 .def_147))) (let ((.def_327 (not .def_326))) (let ((.def_328 (and A1 .def_133))) (let ((.def_329 (not .def_328))) (let ((.def_330 (or .def_329 .def_327))) (let ((.def_331 (and .def_330 .def_325))) (let ((.def_332 (or .def_47 A5))) (let ((.def_333 (+ .def_1 .def_61))) (let ((.def_334 (< .def_333 (- 1)))) (let ((.def_335 (not .def_334))) (let ((.def_336 (or .def_335 .def_160))) (let ((.def_337 (and .def_336 .def_332))) (let ((.def_338 (or A0 .def_147))) (let ((.def_339 (+ .def_24 .def_1))) (let ((.def_340 (< .def_339 (- 1)))) (let ((.def_341 (and .def_81 .def_340))) (let ((.def_342 (not .def_341))) (let ((.def_343 (= .def_342 .def_338))) (let ((.def_344 (and .def_343 .def_337))) (let ((.def_345 (not .def_344))) (let ((.def_346 (and .def_345 .def_331))) (let ((.def_347 (+ .def_24 .def_100))) (let ((.def_348 (< .def_347 1))) (let ((.def_349 (not .def_348))) (let ((.def_350 (or .def_297 .def_349))) (let ((.def_351 (< .def_16 (- 1)))) (let ((.def_352 (or .def_351 .def_294))) (let ((.def_353 (= .def_352 .def_350))) (let ((.def_354 (not .def_353))) (let ((.def_355 (or .def_57 .def_261))) (let ((.def_356 (+ .def_16 .def_100))) (let ((.def_357 (< .def_356 1))) (let ((.def_358 (and .def_357 A2))) (let ((.def_359 (not .def_358))) (let ((.def_360 (and .def_359 .def_355))) (let ((.def_361 (not .def_360))) (let ((.def_362 (or .def_361 .def_354))) (let ((.def_363 (not .def_362))) (let ((.def_364 (= .def_160 .def_147))) (let ((.def_365 (and .def_194 .def_191))) (let ((.def_366 (and .def_365 .def_364))) (let ((.def_367 (not .def_366))) (let ((.def_368 (and A3 A3))) (let ((.def_369 (+ .def_13 .def_61))) (let ((.def_370 (< .def_369 1))) (let ((.def_371 (not .def_370))) (let ((.def_372 (or A2 .def_371))) (let ((.def_373 (not .def_372))) (let ((.def_374 (or .def_373 .def_368))) (let ((.def_375 (and .def_374 .def_367))) (let ((.def_376 (and .def_375 .def_363))) (let ((.def_377 (not .def_376))) (let ((.def_378 (or .def_377 .def_346))) (let ((.def_379 (not .def_378))) (let ((.def_380 (+ .def_121 .def_0))) (let ((.def_381 (< .def_380 (- 1)))) (let ((.def_382 (not .def_381))) (let ((.def_383 (or .def_382 A2))) (let ((.def_384 (+ .def_12 .def_121))) (let ((.def_385 (< .def_384 (- 1)))) (let ((.def_386 (and .def_385 A3))) (let ((.def_387 (or .def_386 .def_383))) (let ((.def_388 (not .def_387))) (let ((.def_389 (or A3 A0))) (let ((.def_390 (< .def_13 1))) (let ((.def_391 (+ .def_13 .def_8))) (let ((.def_392 (< .def_391 1))) (let ((.def_393 (and .def_392 .def_390))) (let ((.def_394 (not .def_393))) (let ((.def_395 (or .def_394 .def_389))) (let ((.def_396 (and .def_395 .def_388))) (let ((.def_397 (or .def_390 A2))) (let ((.def_398 (+ .def_0 .def_13))) (let ((.def_399 (< .def_398 (- 1)))) (let ((.def_400 (not .def_399))) (let ((.def_401 (or .def_400 A6))) (let ((.def_402 (and .def_401 .def_397))) (let ((.def_403 (not .def_402))) (let ((.def_404 (or .def_77 .def_80))) (let ((.def_405 (+ .def_25 .def_37))) (let ((.def_406 (< .def_405 (- 1)))) (let ((.def_407 (not .def_406))) (let ((.def_408 (and .def_407 A1))) (let ((.def_409 (or .def_408 .def_404))) (let ((.def_410 (not .def_409))) (let ((.def_411 (and .def_410 .def_403))) (let ((.def_412 (and .def_411 .def_396))) (let ((.def_413 (not .def_412))) (let ((.def_414 (+ .def_0 .def_12))) (let ((.def_415 (< .def_414 1))) (let ((.def_416 (or .def_415 A1))) (let ((.def_417 (and .def_129 .def_57))) (let ((.def_418 (not .def_417))) (let ((.def_419 (or .def_418 .def_416))) (let ((.def_420 (not .def_419))) (let ((.def_421 (+ .def_58 .def_8))) (let ((.def_422 (< .def_421 1))) (let ((.def_423 (not .def_422))) (let ((.def_424 (and .def_390 .def_423))) (let ((.def_425 (and .def_129 .def_72))) (let ((.def_426 (or .def_425 .def_424))) (let ((.def_427 (= .def_426 .def_420))) (let ((.def_428 (not .def_427))) (let ((.def_429 (< .def_37 (- 1)))) (let ((.def_430 (or .def_429 .def_59))) (let ((.def_431 (not .def_430))) (let ((.def_432 (and .def_294 .def_78))) (let ((.def_433 (not .def_432))) (let ((.def_434 (or .def_433 .def_431))) (let ((.def_435 (not .def_434))) (let ((.def_436 (or .def_129 .def_72))) (let ((.def_437 (not .def_436))) (let ((.def_438 (< .def_121 1))) (let ((.def_439 (and .def_438 A6))) (let ((.def_440 (or .def_439 .def_437))) (let ((.def_441 (and .def_440 .def_435))) (let ((.def_442 (= .def_441 .def_428))) (let ((.def_443 (or .def_442 .def_413))) (let ((.def_444 (and .def_443 .def_379))) (let ((.def_445 (and .def_147 .def_129))) (let ((.def_446 (not .def_445))) (let ((.def_447 (+ .def_110 .def_42))) (let ((.def_448 (< .def_447 1))) (let ((.def_449 (not .def_448))) (let ((.def_450 (or .def_49 .def_449))) (let ((.def_451 (not .def_450))) (let ((.def_452 (and .def_451 .def_446))) (let ((.def_453 (or .def_49 .def_147))) (let ((.def_454 (not .def_453))) (let ((.def_455 (not .def_438))) (let ((.def_456 (< .def_391 (- 1)))) (let ((.def_457 (not .def_456))) (let ((.def_458 (or .def_457 .def_455))) (let ((.def_459 (or .def_458 .def_454))) (let ((.def_460 (not .def_459))) (let ((.def_461 (or .def_460 .def_452))) (let ((.def_462 (not .def_461))) (let ((.def_463 (+ .def_24 .def_58))) (let ((.def_464 (< .def_463 (- 1)))) (let ((.def_465 (not .def_464))) (let ((.def_466 (or .def_465 .def_294))) (let ((.def_467 (not .def_466))) (let ((.def_468 (< .def_24 (- 1)))) (let ((.def_469 (or .def_468 .def_160))) (let ((.def_470 (not .def_469))) (let ((.def_471 (= .def_470 .def_467))) (let ((.def_472 (or .def_67 .def_35))) (let ((.def_473 (not .def_472))) (let ((.def_474 (or .def_72 .def_429))) (let ((.def_475 (or .def_474 .def_473))) (let ((.def_476 (not .def_475))) (let ((.def_477 (or .def_476 .def_471))) (let ((.def_478 (or .def_477 .def_462))) (let ((.def_479 (not .def_478))) (let ((.def_480 (and A1 A5))) (let ((.def_481 (+ .def_100 .def_1))) (let ((.def_482 (< .def_481 1))) (let ((.def_483 (not .def_482))) (let ((.def_484 (+ .def_28 .def_58))) (let ((.def_485 (< .def_484 (- 1)))) (let ((.def_486 (not .def_485))) (let ((.def_487 (or .def_486 .def_483))) (let ((.def_488 (not .def_487))) (let ((.def_489 (and .def_488 .def_480))) (let ((.def_490 (or .def_160 A0))) (let ((.def_491 (+ .def_110 .def_1))) (let ((.def_492 (< .def_491 1))) (let ((.def_493 (and .def_492 A1))) (let ((.def_494 (not .def_493))) (let ((.def_495 (and .def_494 .def_490))) (let ((.def_496 (not .def_495))) (let ((.def_497 (and .def_496 .def_489))) (let ((.def_498 (not .def_497))) (let ((.def_499 (+ .def_121 .def_16))) (let ((.def_500 (< .def_499 1))) (let ((.def_501 (not .def_500))) (let ((.def_502 (= .def_501 .def_57))) (let ((.def_503 (not .def_502))) (let ((.def_504 (or A2 .def_132))) (let ((.def_505 (or .def_504 .def_503))) (let ((.def_506 (< .def_295 (- 1)))) (let ((.def_507 (and .def_80 .def_506))) (let ((.def_508 (and A6 A7))) (let ((.def_509 (not .def_508))) (let ((.def_510 (or .def_509 .def_507))) (let ((.def_511 (not .def_510))) (let ((.def_512 (or .def_511 .def_505))) (let ((.def_513 (not .def_512))) (let ((.def_514 (= .def_513 .def_498))) (let ((.def_515 (= .def_514 .def_479))) (let ((.def_516 (and A0 .def_351))) (let ((.def_517 (not .def_429))) (let ((.def_518 (+ .def_25 .def_12))) (let ((.def_519 (< .def_518 (- 1)))) (let ((.def_520 (not .def_519))) (let ((.def_521 (or .def_520 .def_517))) (let ((.def_522 (or .def_521 .def_516))) (let ((.def_523 (not .def_522))) (let ((.def_524 (or .def_166 A4))) (let ((.def_525 (+ .def_121 .def_24))) (let ((.def_526 (< .def_525 (- 1)))) (let ((.def_527 (or A9 .def_526))) (let ((.def_528 (or .def_527 .def_524))) (let ((.def_529 (not .def_528))) (let ((.def_530 (or .def_529 .def_523))) (let ((.def_531 (+ .def_28 .def_13))) (let ((.def_532 (< .def_531 (- 1)))) (let ((.def_533 (not .def_532))) (let ((.def_534 (and .def_533 .def_72))) (let ((.def_535 (not .def_534))) (let ((.def_536 (or .def_261 A7))) (let ((.def_537 (not .def_536))) (let ((.def_538 (and .def_537 .def_535))) (let ((.def_539 (not .def_538))) (let ((.def_540 (and .def_268 .def_166))) (let ((.def_541 (or A4 A8))) (let ((.def_542 (not .def_541))) (let ((.def_543 (and .def_542 .def_540))) (let ((.def_544 (not .def_543))) (let ((.def_545 (and .def_544 .def_539))) (let ((.def_546 (or .def_545 .def_530))) (let ((.def_547 (and A7 A6))) (let ((.def_548 (not .def_547))) (let ((.def_549 (or A7 .def_49))) (let ((.def_550 (not .def_549))) (let ((.def_551 (and .def_550 .def_548))) (let ((.def_552 (not .def_551))) (let ((.def_553 (and .def_160 .def_49))) (let ((.def_554 (and A1 A6))) (let ((.def_555 (and .def_554 .def_553))) (let ((.def_556 (not .def_555))) (let ((.def_557 (and .def_556 .def_552))) (let ((.def_558 (not .def_557))) (let ((.def_559 (+ .def_1 .def_24))) (let ((.def_560 (< .def_559 1))) (let ((.def_561 (not .def_560))) (let ((.def_562 (and .def_72 .def_561))) (let ((.def_563 (not .def_562))) (let ((.def_564 (not .def_215))) (let ((.def_565 (and A3 .def_564))) (let ((.def_566 (not .def_565))) (let ((.def_567 (and .def_566 .def_563))) (let ((.def_568 (< .def_398 1))) (let ((.def_569 (not .def_568))) (let ((.def_570 (or A5 .def_569))) (let ((.def_571 (or .def_57 .def_80))) (let ((.def_572 (not .def_571))) (let ((.def_573 (and .def_572 .def_570))) (let ((.def_574 (not .def_573))) (let ((.def_575 (or .def_574 .def_567))) (let ((.def_576 (not .def_575))) (let ((.def_577 (or .def_576 .def_558))) (let ((.def_578 (not .def_577))) (let ((.def_579 (and .def_578 .def_546))) (let ((.def_580 (or .def_579 .def_515))) (let ((.def_581 (not .def_580))) (let ((.def_582 (and .def_581 .def_444))) (let ((.def_583 (or .def_582 .def_315))) (let ((.def_584 (not .def_583))) (let ((.def_585 (<= x9 1))) (let ((.def_586 (<= 0 x9))) (let ((.def_587 (<= x8 1))) (let ((.def_588 (<= 0 x8))) (let ((.def_589 (<= x7 1))) (let ((.def_590 (<= 0 x7))) (let ((.def_591 (<= x6 1))) (let ((.def_592 (<= 0 x6))) (let ((.def_593 (<= x5 1))) (let ((.def_594 (<= 0 x5))) (let ((.def_595 (<= x4 1))) (let ((.def_596 (<= 0 x4))) (let ((.def_597 (<= x3 1))) (let ((.def_598 (<= 0 x3))) (let ((.def_599 (<= x2 1))) (let ((.def_600 (<= 0 x2))) (let ((.def_601 (<= x1 1))) (let ((.def_602 (<= 0 x1))) (let ((.def_603 (<= x0 1))) (let ((.def_604 (<= 0 x0))) (let ((.def_605 (and .def_604 .def_603 .def_602 .def_601 .def_600 .def_599 .def_598 .def_597 .def_596 .def_595 .def_594 .def_593 .def_592 .def_591 .def_590 .def_589 .def_588 .def_587 .def_586 .def_585 .def_584))) .def_605)))))))))))))))))))))))))))))))))))))))))))))))))))))))))))))))))))))))))))))))))))))))))))))))))))))))))))))))))))))))))))))))))))))))))))))))))))))))))))))))))))))))))))))))))))))))))))))))))))))))))))))))))))))))))))))))))))))))))))))))))))))))))))))))))))))))))))))))))))))))))))))))))))))))))))))))))))))))))))))))))))))))))))))))))))))))))))))))))))))))))))))))))))))))))))))))))))))))))))))))))))))))))))))))))))))))))))))))))))))))))))))))))))))))))))))))))))))))))))))))))))))))))))))))))))))))))))))))))))))))))))))))))))))))))))))))))))))))))))))))))))))))))))))))))))))))))))))))))))))))))))))))
(check-sat)
